p cnf 23 13
-1 19 0 
-2 20 0 
-3 11 -4 15 21 0 
-5 22 0 
-6 -7 22 0 
-8 -9 14 23 0 
-10 12 -8 -11 3 23 0 
-12 10 -6 23 0 
-12 10 -13 16 18 23 0 
-14 9 -15 4 23 0 
-16 13 18 22 0 
-17 23 0 
-18 13 16 22 0 
